

******************************************************************************
This program contains Ipopt, a library for large-scale nonlinear optimization.
 Ipopt is released as open source code under the Eclipse Public License (EPL).
         For more information visit http://projects.coin-or.org/Ipopt
******************************************************************************

This is Ipopt version 3.12.8, running with linear solver mumps.
NOTE: Other linear solvers might be more efficient (see Ipopt documentation).

Number of nonzeros in equality constraint Jacobian...:        0
Number of nonzeros in inequality constraint Jacobian.:       20
Number of nonzeros in Lagrangian Hessian.............:        6

Total number of variables............................:        6
                     variables with only lower bounds:        0
                variables with lower and upper bounds:        6
                     variables with only upper bounds:        0
Total number of equality constraints.................:        0
Total number of inequality constraints...............:        4
        inequality constraints with only lower bounds:        4
   inequality constraints with lower and upper bounds:        0
        inequality constraints with only upper bounds:        0

iter    objective    inf_pr   inf_du lg(mu)  ||d||  lg(rg) alpha_du alpha_pr  ls
   0  9.7445954e-02 3.23e+01 2.58e+01  -1.0 0.00e+00    -  0.00e+00 0.00e+00   0
   1  3.3934651e+00 1.39e+01 1.72e+02  -1.0 2.92e+00    -  1.31e-01 6.78e-01h  1
   2  3.1236368e+00 1.31e+01 1.86e+02  -1.0 7.99e+00    -  9.29e-02 5.02e-02f  1
   3  2.8872994e+00 1.04e+01 1.31e+02  -1.0 9.66e-01    -  2.63e-01 2.53e-01f  1
   4  2.8272172e+00 9.10e+00 1.92e+02  -1.0 1.76e+00    -  5.34e-01 1.08e-01h  1
   5  3.4570835e+00 6.09e+00 8.43e+01  -1.0 1.17e+00    -  2.91e-01 3.53e-01h  1
   6  2.8027860e+00 4.92e+00 2.82e+02  -1.0 4.84e+00    -  5.21e-01 1.51e-01f  1
   7  2.6514954e+00 4.00e+00 2.04e+02  -1.0 5.97e+00    -  5.55e-01 1.20e-01h  1
   8  2.6955286e+00 3.38e+00 9.98e+01  -1.0 3.06e+00    -  3.23e-01 1.49e-01h  1
   9  3.4678028e+00 3.29e-01 5.71e+01  -1.0 9.17e-01    -  1.00e+00 7.96e-01h  1
iter    objective    inf_pr   inf_du lg(mu)  ||d||  lg(rg) alpha_du alpha_pr  ls
  10  3.5068189e+00 0.00e+00 9.10e+00  -1.0 2.24e-01    -  1.00e+00 8.93e-01h  1
  11  3.5968288e+00 0.00e+00 1.89e+00  -1.0 1.18e-01    -  1.00e+00 1.00e+00f  1
  12  3.5938340e+00 0.00e+00 1.90e-03  -1.0 7.01e-03    -  1.00e+00 1.00e+00h  1
  13  3.2679434e+00 0.00e+00 4.37e+01  -2.5 1.01e-01    -  8.78e-01 6.64e-01f  1
  14  3.1912468e+00 0.00e+00 1.42e+01  -2.5 5.69e-02    -  8.49e-01 7.97e-01f  1
  15  3.1482476e+00 0.00e+00 7.41e-02  -2.5 1.12e-01    -  1.00e+00 1.00e+00f  1
  16  3.1520143e+00 0.00e+00 2.99e-02  -2.5 3.26e-02    -  1.00e+00 1.00e+00h  1
  17  3.1524123e+00 0.00e+00 7.74e-04  -2.5 5.72e-03    -  1.00e+00 1.00e+00h  1
  18  3.1371495e+00 0.00e+00 7.93e-01  -3.8 3.23e-02    -  8.68e-01 1.00e+00f  1
  19  3.1366965e+00 0.00e+00 1.39e-03  -3.8 5.61e-03    -  1.00e+00 1.00e+00h  1
iter    objective    inf_pr   inf_du lg(mu)  ||d||  lg(rg) alpha_du alpha_pr  ls
  20  3.1358174e+00 0.00e+00 6.34e-05  -5.7 2.15e-03    -  1.00e+00 1.00e+00f  1
  21  3.1358168e+00 0.00e+00 3.94e-09  -5.7 6.38e-06    -  1.00e+00 1.00e+00h  1
  22  3.1358058e+00 0.00e+00 1.00e-08  -8.6 2.90e-05    -  1.00e+00 1.00e+00f  1
  23  3.1358058e+00 0.00e+00 1.07e-14  -9.0 2.61e-08    -  1.00e+00 1.00e+00h  1

Number of Iterations....: 23

                                   (scaled)                 (unscaled)
Objective...............:   3.1358057554506376e+00    3.1358057554506376e+00
Dual infeasibility......:   1.0658141036401503e-14    1.0658141036401503e-14
Constraint violation....:   0.0000000000000000e+00    0.0000000000000000e+00
Complementarity.........:   9.0909107274199095e-10    9.0909107274199095e-10
Overall NLP error.......:   9.0909107274199095e-10    9.0909107274199095e-10


Number of objective function evaluations             = 24
Number of objective gradient evaluations             = 24
Number of equality constraint evaluations            = 0
Number of inequality constraint evaluations          = 24
Number of equality constraint Jacobian evaluations   = 0
Number of inequality constraint Jacobian evaluations = 24
Number of Lagrangian Hessian evaluations             = 23
Total CPU secs in IPOPT (w/o function evaluations)   =      0.006
Total CPU secs in NLP function evaluations           =      0.000

EXIT: Optimal Solution Found.
 
Ipopt 3.12.8: Optimal Solution Found
